(set-logic QF_S)
(declare-fun var0 () String)
(declare-fun var1 () String)
(declare-fun var2 () Int)
(declare-fun var3 () Int)
(declare-fun var4 () Int)
(declare-fun var5 () String)
(declare-fun var6 () String)
(declare-fun var7 () Int)
(assert (str.contains (str.replace "^^ph[Z}O,E" var0 "yS+@M") (str.substr var1 var2 5)))
(assert (> (str.len (str.substr "6CCp9-@" var3 var4)) (str.indexof var5 var6 var7)))
(assert (str.suffixof var1 var5))
(assert (> var7 var2))
(check-sat)